p tw 48 49
1 2
2 13
3 38
4 5
5 6
6 7
7 8
8 9
9 10
10 11
11 12
12 14
13 24
14 15
15 16
16 17
17 18
18 19
19 20
20 42
21 22
22 23
23 25
24 35
25 26
26 27
27 28
28 29
29 30
30 31
31 32
32 33
33 34
34 36
35 44
36 37
37 42
38 39
39 40
40 41
41 42
42 43
44 45
45 46
46 47
46 4
47 48
48 3
48 21
